Route #1: 40 1 12 3 28 25
Route #2: 20 33 43 31 27 35 15
Route #3: 5 17 2 36 14 39 24 26 9
Route #4: 7 16 29 18
Route #5: 32 11 23 10
Route #6: 38 22 30 42 8 4
Route #7: 6 21 34 37 41 13 19
Cost 909
Time 0.076943
